NAME : ch150.opt.tour
TYPE : TOUR
DIMENSION : 150
SOLUTION : 857
4 - Punto{x=37.4393516691, y=541.2090699418},Punto{x=59.4163265482, y=40.1280234442},Punto{x=558.2008003726, y=0.4198814512},Punto{x=579.3265539688, y=601.0359410602}
7 - Punto{x=37.4393516691, y=541.2090699418},Punto{x=59.4163265482, y=40.1280234442},Punto{x=240.8251726391, y=281.51414372},Punto{x=144.6002949996, y=457.4224283926},Punto{x=322.4224566559, y=550.3165478233},Punto{x=488.311799404, y=437.4869439948}
8 - Punto{x=37.4393516691, y=541.2090699418},Punto{x=59.4163265482, y=40.1280234442},Punto{x=558.2008003726, y=0.4198814512},Punto{x=381.6537300653, y=360.3337602785},Punto{x=118.6631474021, y=508.7129103929},Punto{x=356.7098388794, y=67.6477131712}
5 - Punto{x=37.4393516691, y=541.2090699418},Punto{x=59.4163265482, y=40.1280234442},Punto{x=400.4070255527, y=253.6794479997}
6 - Punto{x=37.4393516691, y=541.2090699418},Punto{x=432.2642292251, y=629.4092661116},Punto{x=87.7494562765, y=19.6170129082}
7 - Punto{x=37.4393516691, y=541.2090699418},Punto{x=17.3632612602, y=240.2407068508},Punto{x=54.5248980387, y=438.5515408431},Punto{x=397.5586451389, y=231.3591208928},Punto{x=594.4048565021, y=275.874186899}
4 - Punto{x=37.4393516691, y=541.2090699418},Punto{x=634.317867842, y=612.8291643194},Punto{x=506.6191384007, y=233.0022156094},Punto{x=461.4114714423, y=530.5254969413}
8 - Punto{x=37.4393516691, y=541.2090699418},Punto{x=17.3632612602, y=240.2407068508},Punto{x=216.7010817133, y=466.4816410995},Punto{x=659.9124120147, y=226.6284156239}
3 - Punto{x=37.4393516691, y=541.2090699418},Punto{x=629.9980812186, y=433.4548164038}
6 - Punto{x=37.4393516691, y=541.2090699418},Punto{x=17.3632612602, y=240.2407068508},Punto{x=54.5248980387, y=438.5515408431},Punto{x=397.5586451389, y=231.3591208928},Punto{x=299.48128518, y=251.829512132}
8 - Punto{x=37.4393516691, y=541.2090699418},Punto{x=494.8592427417, y=148.1217856389},Punto{x=398.2298999899, y=119.557657386},Punto{x=595.836073259, y=81.8130051356},Punto{x=358.9170574485, y=404.4670352898}
6 - Punto{x=37.4393516691, y=541.2090699418},Punto{x=59.4163265482, y=40.1280234442},Punto{x=558.2008003726, y=0.4198814512},Punto{x=381.6537300653, y=360.3337602785},Punto{x=588.1968537448, y=580.5946976921}
6 - Punto{x=37.4393516691, y=541.2090699418},Punto{x=59.4163265482, y=40.1280234442},Punto{x=558.2008003726, y=0.4198814512},Punto{x=381.6537300653, y=360.3337602785},Punto{x=471.101431241, y=314.2219307579},Punto{x=172.308833083, y=344.3963466366}
6 - Punto{x=37.4393516691, y=541.2090699418},Punto{x=59.4163265482, y=40.1280234442},Punto{x=240.8251726391, y=281.51414372},Punto{x=144.6002949996, y=457.4224283926},Punto{x=322.4224566559, y=550.3165478233}
5 - Punto{x=37.4393516691, y=541.2090699418},Punto{x=59.4163265482, y=40.1280234442},Punto{x=259.7095810385, y=10.6199925885}
5 - Punto{x=37.4393516691, y=541.2090699418},Punto{x=629.9980812186, y=433.4548164038},Punto{x=228.8325218994, y=410.4461939615}
4 - Punto{x=37.4393516691, y=541.2090699418},Punto{x=246.9281323057, y=322.461332116},Punto{x=146.5389000907, y=39.4231794338}
5 - Punto{x=37.4393516691, y=541.2090699418},Punto{x=494.8592427417, y=148.1217856389},Punto{x=38.1312338227, y=353.1484581781}
7 - Punto{x=37.4393516691, y=541.2090699418},Punto{x=59.4163265482, y=40.1280234442},Punto{x=192.1186059948, y=314.1839922798}
5 - Punto{x=37.4393516691, y=541.2090699418},Punto{x=59.4163265482, y=40.1280234442},Punto{x=558.2008003726, y=0.4198814512},Punto{x=381.6537300653, y=360.3337602785},Punto{x=578.3805347586, y=321.3303494537}
7 - Punto{x=37.4393516691, y=541.2090699418},Punto{x=17.3632612602, y=240.2407068508},Punto{x=216.7010817133, y=466.4816410995},Punto{x=498.8065475299, y=576.2102674608}
4 - Punto{x=37.4393516691, y=541.2090699418},Punto{x=246.9281323057, y=322.461332116},Punto{x=271.5042718992, y=225.2921989972}
4 - Punto{x=37.4393516691, y=541.2090699418},Punto{x=629.9980812186, y=433.4548164038},Punto{x=635.4970237093, y=133.3225902609}
7 - Punto{x=37.4393516691, y=541.2090699418},Punto{x=17.3632612602, y=240.2407068508},Punto{x=216.7010817133, y=466.4816410995},Punto{x=562.9048787838, y=670.0382113114},Punto{x=390.6972811808, y=423.9774318385}
4 - Punto{x=37.4393516691, y=541.2090699418},Punto{x=193.6611295657, y=669.7432521028},Punto{x=220.7044919297, y=270.0819745721}
7 - Punto{x=37.4393516691, y=541.2090699418},Punto{x=246.9281323057, y=322.461332116},Punto{x=146.5389000907, y=39.4231794338},Punto{x=530.7320005441, y=504.0670155337}
5 - Punto{x=37.4393516691, y=541.2090699418},Punto{x=79.465345253, y=445.9641737689}
6 - Punto{x=37.4393516691, y=541.2090699418},Punto{x=59.4163265482, y=40.1280234442},Punto{x=400.4070255527, y=253.6794479997},Punto{x=15.2145765106, y=143.0441928532}
4 - Punto{x=37.4393516691, y=541.2090699418},Punto{x=634.317867842, y=612.8291643194},Punto{x=598.4162993909, y=414.5557574275}
7 - Punto{x=37.4393516691, y=541.2090699418},Punto{x=629.9980812186, y=433.4548164038},Punto{x=43.6892045516, y=305.4722789165},Punto{x=58.7766988363, y=507.1712386832}
7 - Punto{x=37.4393516691, y=541.2090699418},Punto{x=629.9980812186, y=433.4548164038},Punto{x=228.8325218994, y=410.4461939615},Punto{x=141.4039286509, y=228.4325551488}
6 - Punto{x=37.4393516691, y=541.2090699418},Punto{x=59.4163265482, y=40.1280234442},Punto{x=240.8251726391, y=281.51414372},Punto{x=72.6329856671, y=645.7852219213}
7 - Punto{x=37.4393516691, y=541.2090699418},Punto{x=59.4163265482, y=40.1280234442},Punto{x=630.9230074073, y=230.342988813},Punto{x=436.5194739944, y=282.935645607}
2 - Punto{x=37.4393516691, y=541.2090699418},Punto{x=17.3632612602, y=240.2407068508}
8 - Punto{x=37.4393516691, y=541.2090699418},Punto{x=308.434570974, y=115.2054269847},Punto{x=42.5331441666, y=656.3645162886}
6 - Punto{x=37.4393516691, y=541.2090699418},Punto{x=629.9980812186, y=433.4548164038},Punto{x=537.4663680494, y=472.5842276692},Punto{x=639.0307636033, y=467.2302300719}
7 - Punto{x=37.4393516691, y=541.2090699418},Punto{x=246.9281323057, y=322.461332116},Punto{x=612.1759508571, y=494.3166877396}
6 - Punto{x=37.4393516691, y=541.2090699418},Punto{x=59.4163265482, y=40.1280234442},Punto{x=396.1274792588, y=539.4648066027},Punto{x=197.896926984, y=512.388896098}
7 - Punto{x=37.4393516691, y=541.2090699418},Punto{x=17.3632612602, y=240.2407068508},Punto{x=212.3725077442, y=594.9216893413}
7 - Punto{x=37.4393516691, y=541.2090699418},Punto{x=634.317867842, y=612.8291643194},Punto{x=598.4162993909, y=414.5557574275},Punto{x=398.550436558, y=392.6493259144},Punto{x=565.7853781464, y=282.3858748974}
5 - Punto{x=37.4393516691, y=541.2090699418},Punto{x=59.4163265482, y=40.1280234442},Punto{x=240.8251726391, y=281.51414372},Punto{x=475.8975387047, y=468.5392706317}
9 - Punto{x=37.4393516691, y=541.2090699418},Punto{x=629.9980812186, y=433.4548164038},Punto{x=43.6892045516, y=305.4722789165},Punto{x=141.4507014379, y=485.2477927763}
5 - Punto{x=37.4393516691, y=541.2090699418},Punto{x=59.4163265482, y=40.1280234442},Punto{x=558.2008003726, y=0.4198814512},Punto{x=381.6537300653, y=360.3337602785},Punto{x=500.3825200226, y=198.7428378322}
4 - Punto{x=37.4393516691, y=541.2090699418},Punto{x=59.4163265482, y=40.1280234442},Punto{x=240.8251726391, y=281.51414372}
4 - Punto{x=37.4393516691, y=541.2090699418},Punto{x=193.6611295657, y=669.7432521028},Punto{x=475.7345905802, y=385.7844618897}
5 - Punto{x=37.4393516691, y=541.2090699418},Punto{x=308.434570974, y=115.2054269847}
6 - Punto{x=37.4393516691, y=541.2090699418},Punto{x=59.4163265482, y=40.1280234442},Punto{x=558.2008003726, y=0.4198814512},Punto{x=381.6537300653, y=360.3337602785},Punto{x=396.7741299332, y=460.7557115283}
4 - Punto{x=37.4393516691, y=541.2090699418},Punto{x=629.9980812186, y=433.4548164038},Punto{x=537.4663680494, y=472.5842276692}
6 - Punto{x=37.4393516691, y=541.2090699418},Punto{x=17.3632612602, y=240.2407068508},Punto{x=54.5248980387, y=438.5515408431},Punto{x=255.5566183121, y=448.8651882442}
6 - Punto{x=37.4393516691, y=541.2090699418},Punto{x=246.9281323057, y=322.461332116},Punto{x=70.2722703273, y=77.9227026433},Punto{x=189.75062244, y=460.3815233617}
10 - Punto{x=37.4393516691, y=541.2090699418},Punto{x=17.3632612602, y=240.2407068508},Punto{x=216.7010817133, y=466.4816410995},Punto{x=562.9048787838, y=670.0382113114},Punto{x=590.893972056, y=370.7414913742},Punto{x=661.0513901702, y=445.9375182115}
5 - Punto{x=37.4393516691, y=541.2090699418},Punto{x=634.317867842, y=612.8291643194},Punto{x=506.6191384007, y=233.0022156094},Punto{x=342.3579873647, y=599.3880182608}
7 - Punto{x=37.4393516691, y=541.2090699418},Punto{x=629.9980812186, y=433.4548164038},Punto{x=91.6467647724, y=166.3541158474},Punto{x=690.9658585947, y=134.5793307203},Punto{x=112.7478815786, y=529.417757826},Punto{x=484.8029663388, y=677.0730379436}
6 - Punto{x=37.4393516691, y=541.2090699418},Punto{x=59.4163265482, y=40.1280234442},Punto{x=558.2008003726, y=0.4198814512},Punto{x=381.6537300653, y=360.3337602785},Punto{x=578.3805347586, y=321.3303494537},Punto{x=278.8710882619, y=299.9308770828}
6 - Punto{x=37.4393516691, y=541.2090699418},Punto{x=17.3632612602, y=240.2407068508},Punto{x=54.5248980387, y=438.5515408431},Punto{x=397.5586634023, y=74.7588387765},Punto{x=48.0798124069, y=270.968067372}
7 - Punto{x=37.4393516691, y=541.2090699418},Punto{x=17.3632612602, y=240.2407068508},Punto{x=299.588137008, y=530.588961902}
5 - Punto{x=37.4393516691, y=541.2090699418},Punto{x=59.4163265482, y=40.1280234442},Punto{x=396.1274792588, y=539.4648066027}
5 - Punto{x=37.4393516691, y=541.2090699418},Punto{x=59.4163265482, y=40.1280234442},Punto{x=56.0199567669, y=243.0663818382}
6 - Punto{x=37.4393516691, y=541.2090699418},Punto{x=629.9980812186, y=433.4548164038},Punto{x=635.4970237093, y=133.3225902609},Punto{x=334.350832971, y=153.796923804}
3 - Punto{x=37.4393516691, y=541.2090699418},Punto{x=59.4163265482, y=40.1280234442},Punto{x=558.2008003726, y=0.4198814512}
3 - Punto{x=37.4393516691, y=541.2090699418},Punto{x=634.317867842, y=612.8291643194},Punto{x=506.6191384007, y=233.0022156094}
5 - Punto{x=37.4393516691, y=541.2090699418},Punto{x=494.8592427417, y=148.1217856389},Punto{x=398.2298999899, y=119.557657386}
4 - Punto{x=37.4393516691, y=541.2090699418},Punto{x=661.5588724308, y=217.0456944477}
7 - Punto{x=37.4393516691, y=541.2090699418},Punto{x=246.9281323057, y=322.461332116},Punto{x=70.2722703273, y=77.9227026433},Punto{x=395.6913876595, y=699.5376048429}
5 - Punto{x=37.4393516691, y=541.2090699418},Punto{x=629.9980812186, y=433.4548164038},Punto{x=192.4067320507, y=20.439405931}
6 - Punto{x=37.4393516691, y=541.2090699418},Punto{x=634.317867842, y=612.8291643194},Punto{x=598.4162993909, y=414.5557574275},Punto{x=398.550436558, y=392.6493259144}
5 - Punto{x=37.4393516691, y=541.2090699418},Punto{x=634.317867842, y=612.8291643194},Punto{x=506.6191384007, y=233.0022156094},Punto{x=623.2487161301, y=69.189285084}
8 - Punto{x=37.4393516691, y=541.2090699418},Punto{x=59.4163265482, y=40.1280234442},Punto{x=630.9230074073, y=230.342988813},Punto{x=343.169370767, y=509.3123571315},Punto{x=210.4163247004, y=130.7151137038}
6 - Punto{x=37.4393516691, y=541.2090699418},Punto{x=629.9980812186, y=433.4548164038},Punto{x=176.5941623792, y=648.5239953299},Punto{x=130.9237737024, y=351.1491733079}
7 - Punto{x=37.4393516691, y=541.2090699418},Punto{x=193.6611295657, y=669.7432521028},Punto{x=486.4648554867, y=593.0429937016},Punto{x=303.8379894831, y=21.052606379}
4 - Punto{x=37.4393516691, y=541.2090699418},Punto{x=59.4163265482, y=40.1280234442},Punto{x=558.2008003726, y=0.4198814512},Punto{x=381.6537300653, y=360.3337602785}
5 - Punto{x=37.4393516691, y=541.2090699418},Punto{x=634.317867842, y=612.8291643194},Punto{x=506.6191384007, y=233.0022156094},Punto{x=461.4114714423, y=530.5254969413},Punto{x=88.4677500396, y=384.0507209275}
7 - Punto{x=37.4393516691, y=541.2090699418},Punto{x=59.4163265482, y=40.1280234442},Punto{x=457.2628632528, y=350.0164047376}
8 - Punto{x=37.4393516691, y=541.2090699418},Punto{x=629.9980812186, y=433.4548164038},Punto{x=228.8325218994, y=410.4461939615},Punto{x=354.7242881504, y=685.40453619}
6 - Punto{x=37.4393516691, y=541.2090699418},Punto{x=17.3632612602, y=240.2407068508},Punto{x=54.5248980387, y=438.5515408431},Punto{x=397.5586634023, y=74.7588387765},Punto{x=141.4875865042, y=504.818485571}
5 - Punto{x=37.4393516691, y=541.2090699418},Punto{x=59.4163265482, y=40.1280234442},Punto{x=558.2008003726, y=0.4198814512},Punto{x=381.6537300653, y=360.3337602785},Punto{x=672.8618339396, y=432.882640963}
8 - Punto{x=37.4393516691, y=541.2090699418},Punto{x=59.4163265482, y=40.1280234442},Punto{x=558.2008003726, y=0.4198814512},Punto{x=579.3265539688, y=601.0359410602},Punto{x=239.9045383695, y=102.629765339}
7 - Punto{x=37.4393516691, y=541.2090699418},Punto{x=634.317867842, y=612.8291643194},Punto{x=97.7359146347, y=157.4558657632},Punto{x=224.31827155, y=312.4677490415}
7 - Punto{x=37.4393516691, y=541.2090699418},Punto{x=59.4163265482, y=40.1280234442},Punto{x=396.1274792588, y=539.4648066027},Punto{x=565.1617825137, y=429.1598152874}
6 - Punto{x=37.4393516691, y=541.2090699418},Punto{x=629.9980812186, y=433.4548164038},Punto{x=282.7865258765, y=229.8001556189}
3 - Punto{x=37.4393516691, y=541.2090699418},Punto{x=246.9281323057, y=322.461332116}
6 - Punto{x=37.4393516691, y=541.2090699418},Punto{x=59.4163265482, y=40.1280234442},Punto{x=630.9230074073, y=230.342988813},Punto{x=343.169370767, y=509.3123571315}
5 - Punto{x=37.4393516691, y=541.2090699418},Punto{x=634.317867842, y=612.8291643194},Punto{x=506.6191384007, y=233.0022156094},Punto{x=249.0589749342, y=76.6595112599}
6 - Punto{x=37.4393516691, y=541.2090699418},Punto{x=59.4163265482, y=40.1280234442},Punto{x=558.2008003726, y=0.4198814512},Punto{x=381.6537300653, y=360.3337602785},Punto{x=118.6631474021, y=508.7129103929}
5 - Punto{x=37.4393516691, y=541.2090699418},Punto{x=59.4163265482, y=40.1280234442},Punto{x=558.2008003726, y=0.4198814512},Punto{x=381.6537300653, y=360.3337602785},Punto{x=53.4418081065, y=131.484901365}
5 - Punto{x=37.4393516691, y=541.2090699418},Punto{x=17.3632612602, y=240.2407068508},Punto{x=54.5248980387, y=438.5515408431},Punto{x=334.2748764383, y=152.1494569394}
5 - Punto{x=37.4393516691, y=541.2090699418},Punto{x=59.4163265482, y=40.1280234442},Punto{x=240.8251726391, y=281.51414372},Punto{x=144.6002949996, y=457.4224283926}
6 - Punto{x=37.4393516691, y=541.2090699418},Punto{x=193.6611295657, y=669.7432521028},Punto{x=697.3881696597, y=180.3962284275}
5 - Punto{x=37.4393516691, y=541.2090699418},Punto{x=494.8592427417, y=148.1217856389},Punto{x=135.6377085256, y=325.8409901555}
5 - Punto{x=37.4393516691, y=541.2090699418},Punto{x=59.4163265482, y=40.1280234442},Punto{x=558.2008003726, y=0.4198814512},Punto{x=381.6537300653, y=360.3337602785},Punto{x=649.7313216456, y=62.3331575282}
8 - Punto{x=37.4393516691, y=541.2090699418},Punto{x=629.9980812186, y=433.4548164038},Punto{x=117.862450748, y=112.9796833705}
7 - Punto{x=37.4393516691, y=541.2090699418},Punto{x=634.317867842, y=612.8291643194},Punto{x=97.7359146347, y=157.4558657632},Punto{x=297.7912565664, y=166.3131886803}
5 - Punto{x=37.4393516691, y=541.2090699418},Punto{x=629.9980812186, y=433.4548164038},Punto{x=176.5941623792, y=648.5239953299}
5 - Punto{x=37.4393516691, y=541.2090699418},Punto{x=634.317867842, y=612.8291643194},Punto{x=506.6191384007, y=233.0022156094},Punto{x=461.4114714423, y=530.5254969413},Punto{x=415.0258357432, y=233.3045376118}
2 - Punto{x=37.4393516691, y=541.2090699418},Punto{x=59.4163265482, y=40.1280234442}
7 - Punto{x=37.4393516691, y=541.2090699418},Punto{x=59.4163265482, y=40.1280234442},Punto{x=240.8251726391, y=281.51414372},Punto{x=475.8975387047, y=468.5392706317},Punto{x=656.6943525585, y=558.1109593509}
6 - Punto{x=37.4393516691, y=541.2090699418},Punto{x=634.317867842, y=612.8291643194},Punto{x=506.6191384007, y=233.0022156094},Punto{x=608.4256112402, y=222.5421309272}
4 - Punto{x=37.4393516691, y=541.2090699418},Punto{x=494.8592427417, y=148.1217856389}
6 - Punto{x=37.4393516691, y=541.2090699418},Punto{x=634.317867842, y=612.8291643194},Punto{x=531.0291024509, y=612.3874827889}
4 - Punto{x=37.4393516691, y=541.2090699418},Punto{x=59.4163265482, y=40.1280234442},Punto{x=49.9186786455, y=541.4350825349}
6 - Punto{x=37.4393516691, y=541.2090699418},Punto{x=629.9980812186, y=433.4548164038},Punto{x=91.6467647724, y=166.3541158474},Punto{x=690.9658585947, y=134.5793307203},Punto{x=112.7478815786, y=529.417757826}
7 - Punto{x=37.4393516691, y=541.2090699418},Punto{x=59.4163265482, y=40.1280234442},Punto{x=630.9230074073, y=230.342988813},Punto{x=138.2440514421, y=137.1679919735}
5 - Punto{x=37.4393516691, y=541.2090699418},Punto{x=59.4163265482, y=40.1280234442},Punto{x=630.9230074073, y=230.342988813}
7 - Punto{x=37.4393516691, y=541.2090699418},Punto{x=629.9980812186, y=433.4548164038},Punto{x=352.3140807211, y=140.3273323662}
7 - Punto{x=37.4393516691, y=541.2090699418},Punto{x=432.2642292251, y=629.4092661116},Punto{x=530.3626972076, y=137.6881275684}
6 - Punto{x=37.4393516691, y=541.2090699418},Punto{x=629.9980812186, y=433.4548164038},Punto{x=633.392367658, y=534.9398453712},Punto{x=269.3669098585, y=367.4763636538}
4 - Punto{x=37.4393516691, y=541.2090699418},Punto{x=193.6611295657, y=669.7432521028},Punto{x=98.7899036592, y=384.5926031158}
5 - Punto{x=37.4393516691, y=541.2090699418},Punto{x=59.4163265482, y=40.1280234442},Punto{x=547.2662016307, y=161.6589278401}
7 - Punto{x=37.4393516691, y=541.2090699418},Punto{x=494.8592427417, y=148.1217856389},Punto{x=398.2298999899, y=119.557657386},Punto{x=595.836073259, y=81.8130051356}
8 - Punto{x=37.4393516691, y=541.2090699418},Punto{x=494.8592427417, y=148.1217856389},Punto{x=38.1312338227, y=353.1484581781},Punto{x=536.4894189738, y=287.2279085051}
6 - Punto{x=37.4393516691, y=541.2090699418},Punto{x=629.9980812186, y=433.4548164038},Punto{x=176.5941623792, y=648.5239953299},Punto{x=315.2926064118, y=273.2275475579}
6 - Punto{x=37.4393516691, y=541.2090699418},Punto{x=634.317867842, y=612.8291643194},Punto{x=97.7359146347, y=157.4558657632}
4 - Punto{x=37.4393516691, y=541.2090699418},Punto{x=17.3632612602, y=240.2407068508},Punto{x=54.5248980387, y=438.5515408431}
7 - Punto{x=37.4393516691, y=541.2090699418},Punto{x=634.317867842, y=612.8291643194},Punto{x=506.6191384007, y=233.0022156094},Punto{x=461.4114714423, y=530.5254969413},Punto{x=559.0157105844, y=560.8866941411}
5 - Punto{x=37.4393516691, y=541.2090699418},Punto{x=629.9980812186, y=433.4548164038},Punto{x=633.392367658, y=534.9398453712}
6 - Punto{x=37.4393516691, y=541.2090699418},Punto{x=59.4163265482, y=40.1280234442},Punto{x=240.8251726391, y=281.51414372},Punto{x=352.96585626, y=666.7873101942}
6 - Punto{x=37.4393516691, y=541.2090699418},Punto{x=193.6611295657, y=669.7432521028},Punto{x=98.7899036592, y=384.5926031158},Punto{x=378.3484559418, y=272.2907677147}
5 - Punto{x=37.4393516691, y=541.2090699418},Punto{x=629.9980812186, y=433.4548164038},Punto{x=635.4970237093, y=133.3225902609},Punto{x=143.0606355347, y=631.7200953923}
0 - Punto{x=37.4393516691, y=541.2090699418}
7 - Punto{x=37.4393516691, y=541.2090699418},Punto{x=17.3632612602, y=240.2407068508},Punto{x=216.7010817133, y=466.4816410995},Punto{x=562.9048787838, y=670.0382113114},Punto{x=590.893972056, y=370.7414913742}
7 - Punto{x=37.4393516691, y=541.2090699418},Punto{x=634.317867842, y=612.8291643194},Punto{x=506.6191384007, y=233.0022156094},Punto{x=461.4114714423, y=530.5254969413},Punto{x=59.7537372726, y=551.6321886765}
5 - Punto{x=37.4393516691, y=541.2090699418},Punto{x=17.3632612602, y=240.2407068508},Punto{x=54.5248980387, y=438.5515408431},Punto{x=397.5586634023, y=74.7588387765}
4 - Punto{x=37.4393516691, y=541.2090699418},Punto{x=629.9980812186, y=433.4548164038},Punto{x=91.6467647724, y=166.3541158474}
4 - Punto{x=37.4393516691, y=541.2090699418},Punto{x=629.9980812186, y=433.4548164038},Punto{x=43.6892045516, y=305.4722789165}
5 - Punto{x=37.4393516691, y=541.2090699418},Punto{x=432.2642292251, y=629.4092661116}
4 - Punto{x=37.4393516691, y=541.2090699418},Punto{x=17.3632612602, y=240.2407068508},Punto{x=216.7010817133, y=466.4816410995}
5 - Punto{x=37.4393516691, y=541.2090699418},Punto{x=17.3632612602, y=240.2407068508},Punto{x=54.5248980387, y=438.5515408431},Punto{x=397.5586451389, y=231.3591208928}
6 - Punto{x=37.4393516691, y=541.2090699418},Punto{x=308.434570974, y=115.2054269847},Punto{x=22.6471035906, y=526.2470392816}
6 - Punto{x=37.4393516691, y=541.2090699418},Punto{x=193.6611295657, y=669.7432521028},Punto{x=220.7044919297, y=270.0819745721},Punto{x=616.6547902644, y=339.3409309407}
3 - Punto{x=37.4393516691, y=541.2090699418},Punto{x=193.6611295657, y=669.7432521028}
6 - Punto{x=37.4393516691, y=541.2090699418},Punto{x=59.4163265482, y=40.1280234442},Punto{x=558.2008003726, y=0.4198814512},Punto{x=381.6537300653, y=360.3337602785},Punto{x=578.3805347586, y=321.3303494537},Punto{x=104.6531165914, y=482.8224768783}
5 - Punto{x=37.4393516691, y=541.2090699418},Punto{x=246.9281323057, y=322.461332116},Punto{x=70.2722703273, y=77.9227026433}
6 - Punto{x=37.4393516691, y=541.2090699418},Punto{x=629.9980812186, y=433.4548164038},Punto{x=43.6892045516, y=305.4722789165},Punto{x=91.5847556724, y=110.0203007516}
7 - Punto{x=37.4393516691, y=541.2090699418},Punto{x=634.317867842, y=612.8291643194},Punto{x=598.4162993909, y=414.5557574275},Punto{x=398.550436558, y=392.6493259144},Punto{x=10.0260950143, y=488.9310558282}
6 - Punto{x=37.4393516691, y=541.2090699418},Punto{x=59.4163265482, y=40.1280234442},Punto{x=283.0054378872, y=376.4439530184}
6 - Punto{x=37.4393516691, y=541.2090699418},Punto{x=17.3632612602, y=240.2407068508},Punto{x=101.8685605377, y=635.098685018}
6 - Punto{x=37.4393516691, y=541.2090699418},Punto{x=246.9281323057, y=322.461332116},Punto{x=271.5042718992, y=225.2921989972},Punto{x=282.3036243109, y=426.8380500923}
7 - Punto{x=37.4393516691, y=541.2090699418},Punto{x=246.9281323057, y=322.461332116},Punto{x=70.2722703273, y=77.9227026433},Punto{x=189.75062244, y=460.3815233617},Punto{x=689.9451267256, y=468.5354998742}
6 - Punto{x=37.4393516691, y=541.2090699418},Punto{x=79.465345253, y=445.9641737689},Punto{x=557.6070707573, y=595.3185092281}
6 - Punto{x=37.4393516691, y=541.2090699418},Punto{x=17.3632612602, y=240.2407068508},Punto{x=216.7010817133, y=466.4816410995},Punto{x=562.9048787838, y=670.0382113114}
8 - Punto{x=37.4393516691, y=541.2090699418},Punto{x=79.465345253, y=445.9641737689},Punto{x=557.6070707573, y=595.3185092281},Punto{x=658.9133693395, y=583.9575181023}
9 - Punto{x=37.4393516691, y=541.2090699418},Punto{x=629.9980812186, y=433.4548164038},Punto{x=635.4970237093, y=133.3225902609},Punto{x=350.4245639661, y=420.6531186835}
6 - Punto{x=37.4393516691, y=541.2090699418},Punto{x=193.6611295657, y=669.7432521028},Punto{x=486.4648554867, y=593.0429937016}
9 - Punto{x=37.4393516691, y=541.2090699418},Punto{x=17.3632612602, y=240.2407068508},Punto{x=54.5248980387, y=438.5515408431},Punto{x=397.5586634023, y=74.7588387765},Punto{x=500.2566898239, y=64.9136393489}
6 - Punto{x=37.4393516691, y=541.2090699418},Punto{x=59.4163265482, y=40.1280234442},Punto{x=558.2008003726, y=0.4198814512},Punto{x=22.7642703744, y=455.5340094037}
5 - Punto{x=37.4393516691, y=541.2090699418},Punto{x=59.4163265482, y=40.1280234442},Punto{x=558.2008003726, y=0.4198814512},Punto{x=381.6537300653, y=360.3337602785},Punto{x=471.101431241, y=314.2219307579}
6 - Punto{x=37.4393516691, y=541.2090699418},Punto{x=59.4163265482, y=40.1280234442},Punto{x=547.2662016307, y=161.6589278401},Punto{x=66.230814661, y=24.1317387604}
5 - Punto{x=37.4393516691, y=541.2090699418},Punto{x=629.9980812186, y=433.4548164038},Punto{x=91.6467647724, y=166.3541158474},Punto{x=690.9658585947, y=134.5793307203}
2 - Punto{x=37.4393516691, y=541.2090699418},Punto{x=634.317867842, y=612.8291643194}
6 - Punto{x=37.4393516691, y=541.2090699418},Punto{x=634.317867842, y=612.8291643194},Punto{x=571.2189680147, y=530.261699153}
-1
EOF